param set_len = 52;
param target_sum = 14239618531;
param values := [1] 24995119 [2] 715717040 [3] 810902037 [4] 782582914 [5] 1044931380 [6] 242931318 [7] 533009929 [8] 738614507 [9] 115722740 [10] 482690020 [11] 26510069 [12] 1024081761 [13] 241930875 [14] 87452188 [15] 746739673 [16] 172801162 [17] 515845767 [18] 398307280 [19] 995705623 [20] 77998533 [21] 757181643 [22] 99935278 [23] 221664910 [24] 393312728 [25] 925496918 [26] 275466290 [27] 782472938 [28] 990877657 [29] 696775829 [30] 229808230 [31] 621628518 [32] 889215115 [33] 860241530 [34] 549329419 [35] 62950407 [36] 550673225 [37] 498301305 [38] 394778057 [39] 456480455 [40] 510093708 [41] 633284129 [42] 423086551 [43] 433407421 [44] 134984511 [45] 873173946 [46] 25522710 [47] 931001869 [48] 586783595 [49] 703814321 [50] 1034595878 [51] 625302466 [52] 518379928 ;
